FPU set for double precision

Propagation version: TRIE_V3

============================[ Problem Statistics ]=============================
|                                                                             |
|  Number of variables:            40                                         |
|  Number of clauses:              29                                         |
|  Parse time:                   0.00 s                                       |
|  Eliminated clauses:           0.00 Mb                                      |
|  Simplification time:          0.00 s                                       |
|                                                                             |
============================[ Search Statistics ]==============================
| Conflicts |          ORIGINAL         |          LEARNT          | Progress |
|           |    Vars  Clauses Literals |    Limit  Clauses Lit/Cl |          |
===============================================================================
===============================================================================
restarts              : 1
conflicts             : 0              (0 /sec)
decisions             : 1              (0.00 % random) (150 /sec)
propagations          : 38             (5719 /sec)
conflict literals     : 0              (-nan % deleted)
Memory used           : 13.02 MB
CPU time              : 0.006645 s
Propagation time      : 0.001476 s

SATISFIABLE
